Ordonnancement/plne/source/petit_instance/4job/4job_15.dat
data;
param nombreJob := 4;
param nombreRessource := 3;
param duree := 1 5 2 8 3 4 4 8;
param capaciteRessource := 1 6 2 9 3 15;
param besoinRessource : 1 2 3 :=
                    1   1 5 9
                    2   2 3 5
                    3   3 1 3
                    4   2 5 6;
end;

