Ordonnancement/plne/source/glpk_resultat/4job/4job_15.sol
Problem:    glpsolRcpsp
Rows:       272
Columns:    101 (100 integer, 100 binary)
Non-zeros:  1889
Status:     INTEGER OPTIMAL
Objective:  obj = 13 (MINimum)

   No.   Row name        Activity     Lower bound   Upper bound
------ ------------    ------------- ------------- -------------
     1 periode[1]                  5             5             = 
     2 periode[2]                  8             8             = 
     3 periode[3]                  4             4             = 
     4 periode[4]                  8             8             = 
     5 complet[1,1]                3                           5 
     6 complet[1,2]                2                           5 
     7 complet[1,3]                1                           5 
     8 complet[1,4]                0                           5 
     9 complet[1,5]                5                           5 
    10 complet[1,6]                0                           5 
    11 complet[1,7]                0                           5 
    12 complet[1,8]                0                           5 
    13 complet[1,9]                0                           5 
    14 complet[1,10]
                                   0                           5 
    15 complet[1,11]
                                   0                           5 
    16 complet[1,12]
                                   0                           5 
    17 complet[1,13]
                                   0                           5 
    18 complet[1,14]
                                   0                           5 
    19 complet[1,15]
                                   0                           5 
    20 complet[1,16]
                                   0                           5 
    21 complet[1,17]
                                   0                           5 
    22 complet[1,18]
                                   0                           5 
    23 complet[1,19]
                                   0                           5 
    24 complet[1,20]
                                   0                           5 
    25 complet[1,21]
                                   0                           5 
    26 complet[1,22]
                                   0                           5 
    27 complet[1,23]
                                   0                           5 
    28 complet[2,1]                8                           8 
    29 complet[2,2]                8                           8 
    30 complet[2,3]                8                           8 
    31 complet[2,4]               -1                           8 
    32 complet[2,5]                6                           8 
    33 complet[2,6]                5                           8 
    34 complet[2,7]                4                           8 
    35 complet[2,8]                3                           8 
    36 complet[2,9]                2                           8 
    37 complet[2,10]
                                   1                           8 
    38 complet[2,11]
                                   0                           8 
    39 complet[2,12]
                                   8                           8 
    40 complet[2,13]
                                   0                           8 
    41 complet[2,14]
                                   0                           8 
    42 complet[2,15]
                                   0                           8 
    43 complet[2,16]
                                   0                           8 
    44 complet[2,17]
                                   0                           8 
    45 complet[2,18]
                                   0                           8 
    46 complet[2,19]
                                   0                           8 
    47 complet[2,20]
                                   0                           8 
    48 complet[2,21]
                                   0                           8 
    49 complet[2,22]
                                   0                           8 
    50 complet[2,23]
                                   0                           8 
    51 complet[3,1]                2                           4 
    52 complet[3,2]                1                           4 
    53 complet[3,3]                0                           4 
    54 complet[3,4]                4                           4 
    55 complet[3,5]                0                           4 
    56 complet[3,6]                0                           4 
    57 complet[3,7]                0                           4 
    58 complet[3,8]                0                           4 
    59 complet[3,9]                0                           4 
    60 complet[3,10]
                                   0                           4 
    61 complet[3,11]
                                   0                           4 
    62 complet[3,12]
                                   0                           4 
    63 complet[3,13]
                                   0                           4 
    64 complet[3,14]
                                   0                           4 
    65 complet[3,15]
                                   0                           4 
    66 complet[3,16]
                                   0                           4 
    67 complet[3,17]
                                   0                           4 
    68 complet[3,18]
                                   0                           4 
    69 complet[3,19]
                                   0                           4 
    70 complet[3,20]
                                   0                           4 
    71 complet[3,21]
                                   0                           4 
    72 complet[3,22]
                                   0                           4 
    73 complet[3,23]
                                   0                           4 
    74 complet[4,1]                8                           8 
    75 complet[4,2]                8                           8 
    76 complet[4,3]                8                           8 
    77 complet[4,4]                8                           8 
    78 complet[4,5]               -1                           8 
    79 complet[4,6]                6                           8 
    80 complet[4,7]                5                           8 
    81 complet[4,8]                4                           8 
    82 complet[4,9]                3                           8 
    83 complet[4,10]
                                   2                           8 
    84 complet[4,11]
                                   1                           8 
    85 complet[4,12]
                                   0                           8 
    86 complet[4,13]
                                   8                           8 
    87 complet[4,14]
                                   0                           8 
    88 complet[4,15]
                                   0                           8 
    89 complet[4,16]
                                   0                           8 
    90 complet[4,17]
                                   0                           8 
    91 complet[4,18]
                                   0                           8 
    92 complet[4,19]
                                   0                           8 
    93 complet[4,20]
                                   0                           8 
    94 complet[4,21]
                                   0                           8 
    95 complet[4,22]
                                   0                           8 
    96 complet[4,23]
                                   0                           8 
    97 cmax[1,1]                  12            -0               
    98 cmax[1,2]                  11            -0               
    99 cmax[1,3]                  10            -0               
   100 cmax[1,4]                   9            -0               
   101 cmax[1,5]                   8            -0               
   102 cmax[1,6]                  13            -0               
   103 cmax[1,7]                  13            -0               
   104 cmax[1,8]                  13            -0               
   105 cmax[1,9]                  13            -0               
   106 cmax[1,10]                 13            -0               
   107 cmax[1,11]                 13            -0               
   108 cmax[1,12]                 13            -0               
   109 cmax[1,13]                 13            -0               
   110 cmax[1,14]                 13            -0               
   111 cmax[1,15]                 13            -0               
   112 cmax[1,16]                 13            -0               
   113 cmax[1,17]                 13            -0               
   114 cmax[1,18]                 13            -0               
   115 cmax[1,19]                 13            -0               
   116 cmax[1,20]                 13            -0               
   117 cmax[1,21]                 13            -0               
   118 cmax[1,22]                 13            -0               
   119 cmax[1,23]                 13            -0               
   120 cmax[1,24]                 13            -0               
   121 cmax[1,25]                 13            -0               
   122 cmax[2,1]                  13            -0               
   123 cmax[2,2]                  13            -0               
   124 cmax[2,3]                  13            -0               
   125 cmax[2,4]                  13            -0               
   126 cmax[2,5]                   8            -0               
   127 cmax[2,6]                   7            -0               
   128 cmax[2,7]                   6            -0               
   129 cmax[2,8]                   5            -0               
   130 cmax[2,9]                   4            -0               
   131 cmax[2,10]                  3            -0               
   132 cmax[2,11]                  2            -0               
   133 cmax[2,12]                  1            -0               
   134 cmax[2,13]                 13            -0               
   135 cmax[2,14]                 13            -0               
   136 cmax[2,15]                 13            -0               
   137 cmax[2,16]                 13            -0               
   138 cmax[2,17]                 13            -0               
   139 cmax[2,18]                 13            -0               
   140 cmax[2,19]                 13            -0               
   141 cmax[2,20]                 13            -0               
   142 cmax[2,21]                 13            -0               
   143 cmax[2,22]                 13            -0               
   144 cmax[2,23]                 13            -0               
   145 cmax[2,24]                 13            -0               
   146 cmax[2,25]                 13            -0               
   147 cmax[3,1]                  12            -0               
   148 cmax[3,2]                  11            -0               
   149 cmax[3,3]                  10            -0               
   150 cmax[3,4]                   9            -0               
   151 cmax[3,5]                  13            -0               
   152 cmax[3,6]                  13            -0               
   153 cmax[3,7]                  13            -0               
   154 cmax[3,8]                  13            -0               
   155 cmax[3,9]                  13            -0               
   156 cmax[3,10]                 13            -0               
   157 cmax[3,11]                 13            -0               
   158 cmax[3,12]                 13            -0               
   159 cmax[3,13]                 13            -0               
   160 cmax[3,14]                 13            -0               
   161 cmax[3,15]                 13            -0               
   162 cmax[3,16]                 13            -0               
   163 cmax[3,17]                 13            -0               
   164 cmax[3,18]                 13            -0               
   165 cmax[3,19]                 13            -0               
   166 cmax[3,20]                 13            -0               
   167 cmax[3,21]                 13            -0               
   168 cmax[3,22]                 13            -0               
   169 cmax[3,23]                 13            -0               
   170 cmax[3,24]                 13            -0               
   171 cmax[3,25]                 13            -0               
   172 cmax[4,1]                  13            -0               
   173 cmax[4,2]                  13            -0               
   174 cmax[4,3]                  13            -0               
   175 cmax[4,4]                  13            -0               
   176 cmax[4,5]                  13            -0               
   177 cmax[4,6]                   7            -0               
   178 cmax[4,7]                   6            -0               
   179 cmax[4,8]                   5            -0               
   180 cmax[4,9]                   4            -0               
   181 cmax[4,10]                  3            -0               
   182 cmax[4,11]                  2            -0               
   183 cmax[4,12]                  1            -0               
   184 cmax[4,13]                  0            -0               
   185 cmax[4,14]                 13            -0               
   186 cmax[4,15]                 13            -0               
   187 cmax[4,16]                 13            -0               
   188 cmax[4,17]                 13            -0               
   189 cmax[4,18]                 13            -0               
   190 cmax[4,19]                 13            -0               
   191 cmax[4,20]                 13            -0               
   192 cmax[4,21]                 13            -0               
   193 cmax[4,22]                 13            -0               
   194 cmax[4,23]                 13            -0               
   195 cmax[4,24]                 13            -0               
   196 cmax[4,25]                 13            -0               
   197 ressource[1,1]
                                   4                           6 
   198 ressource[1,2]
                                   4                           6 
   199 ressource[1,3]
                                   4                           6 
   200 ressource[1,4]
                                   4                           6 
   201 ressource[1,5]
                                   3                           6 
   202 ressource[1,6]
                                   4                           6 
   203 ressource[1,7]
                                   4                           6 
   204 ressource[1,8]
                                   4                           6 
   205 ressource[1,9]
                                   4                           6 
   206 ressource[1,10]
                                   4                           6 
   207 ressource[1,11]
                                   4                           6 
   208 ressource[1,12]
                                   4                           6 
   209 ressource[1,13]
                                   2                           6 
   210 ressource[1,14]
                                   0                           6 
   211 ressource[1,15]
                                   0                           6 
   212 ressource[1,16]
                                   0                           6 
   213 ressource[1,17]
                                   0                           6 
   214 ressource[1,18]
                                   0                           6 
   215 ressource[1,19]
                                   0                           6 
   216 ressource[1,20]
                                   0                           6 
   217 ressource[1,21]
                                   0                           6 
   218 ressource[1,22]
                                   0                           6 
   219 ressource[1,23]
                                   0                           6 
   220 ressource[1,24]
                                   0                           6 
   221 ressource[1,25]
                                   0                           6 
   222 ressource[2,1]
                                   6                           9 
   223 ressource[2,2]
                                   6                           9 
   224 ressource[2,3]
                                   6                           9 
   225 ressource[2,4]
                                   6                           9 
   226 ressource[2,5]
                                   8                           9 
   227 ressource[2,6]
                                   8                           9 
   228 ressource[2,7]
                                   8                           9 
   229 ressource[2,8]
                                   8                           9 
   230 ressource[2,9]
                                   8                           9 
   231 ressource[2,10]
                                   8                           9 
   232 ressource[2,11]
                                   8                           9 
   233 ressource[2,12]
                                   8                           9 
   234 ressource[2,13]
                                   5                           9 
   235 ressource[2,14]
                                   0                           9 
   236 ressource[2,15]
                                   0                           9 
   237 ressource[2,16]
                                   0                           9 
   238 ressource[2,17]
                                   0                           9 
   239 ressource[2,18]
                                   0                           9 
   240 ressource[2,19]
                                   0                           9 
   241 ressource[2,20]
                                   0                           9 
   242 ressource[2,21]
                                   0                           9 
   243 ressource[2,22]
                                   0                           9 
   244 ressource[2,23]
                                   0                           9 
   245 ressource[2,24]
                                   0                           9 
   246 ressource[2,25]
                                   0                           9 
   247 ressource[3,1]
                                  12                          15 
   248 ressource[3,2]
                                  12                          15 
   249 ressource[3,3]
                                  12                          15 
   250 ressource[3,4]
                                  12                          15 
   251 ressource[3,5]
                                  14                          15 
   252 ressource[3,6]
                                  11                          15 
   253 ressource[3,7]
                                  11                          15 
   254 ressource[3,8]
                                  11                          15 
   255 ressource[3,9]
                                  11                          15 
   256 ressource[3,10]
                                  11                          15 
   257 ressource[3,11]
                                  11                          15 
   258 ressource[3,12]
                                  11                          15 
   259 ressource[3,13]
                                   6                          15 
   260 ressource[3,14]
                                   0                          15 
   261 ressource[3,15]
                                   0                          15 
   262 ressource[3,16]
                                   0                          15 
   263 ressource[3,17]
                                   0                          15 
   264 ressource[3,18]
                                   0                          15 
   265 ressource[3,19]
                                   0                          15 
   266 ressource[3,20]
                                   0                          15 
   267 ressource[3,21]
                                   0                          15 
   268 ressource[3,22]
                                   0                          15 
   269 ressource[3,23]
                                   0                          15 
   270 ressource[3,24]
                                   0                          15 
   271 ressource[3,25]
                                   0                          15 
   272 obj                        13                             

   No. Column name       Activity     Lower bound   Upper bound
------ ------------    ------------- ------------- -------------
     1 x[1,1]       *              1             0             1 
     2 x[1,2]       *              1             0             1 
     3 x[1,3]       *              1             0             1 
     4 x[1,4]       *              1             0             1 
     5 x[1,5]       *              1             0             1 
     6 x[1,6]       *              0             0             1 
     7 x[1,7]       *              0             0             1 
     8 x[1,8]       *              0             0             1 
     9 x[1,9]       *              0             0             1 
    10 x[1,10]      *              0             0             1 
    11 x[1,11]      *              0             0             1 
    12 x[1,12]      *              0             0             1 
    13 x[1,13]      *              0             0             1 
    14 x[1,14]      *              0             0             1 
    15 x[1,15]      *              0             0             1 
    16 x[1,16]      *              0             0             1 
    17 x[1,17]      *              0             0             1 
    18 x[1,18]      *              0             0             1 
    19 x[1,19]      *              0             0             1 
    20 x[1,20]      *              0             0             1 
    21 x[1,21]      *              0             0             1 
    22 x[1,22]      *              0             0             1 
    23 x[1,23]      *              0             0             1 
    24 x[1,24]      *              0             0             1 
    25 x[1,25]      *              0             0             1 
    26 x[2,1]       *              0             0             1 
    27 x[2,2]       *              0             0             1 
    28 x[2,3]       *              0             0             1 
    29 x[2,4]       *              0             0             1 
    30 x[2,5]       *              1             0             1 
    31 x[2,6]       *              1             0             1 
    32 x[2,7]       *              1             0             1 
    33 x[2,8]       *              1             0             1 
    34 x[2,9]       *              1             0             1 
    35 x[2,10]      *              1             0             1 
    36 x[2,11]      *              1             0             1 
    37 x[2,12]      *              1             0             1 
    38 x[2,13]      *              0             0             1 
    39 x[2,14]      *              0             0             1 
    40 x[2,15]      *              0             0             1 
    41 x[2,16]      *              0             0             1 
    42 x[2,17]      *              0             0             1 
    43 x[2,18]      *              0             0             1 
    44 x[2,19]      *              0             0             1 
    45 x[2,20]      *              0             0             1 
    46 x[2,21]      *              0             0             1 
    47 x[2,22]      *              0             0             1 
    48 x[2,23]      *              0             0             1 
    49 x[2,24]      *              0             0             1 
    50 x[2,25]      *              0             0             1 
    51 x[3,1]       *              1             0             1 
    52 x[3,2]       *              1             0             1 
    53 x[3,3]       *              1             0             1 
    54 x[3,4]       *              1             0             1 
    55 x[3,5]       *              0             0             1 
    56 x[3,6]       *              0             0             1 
    57 x[3,7]       *              0             0             1 
    58 x[3,8]       *              0             0             1 
    59 x[3,9]       *              0             0             1 
    60 x[3,10]      *              0             0             1 
    61 x[3,11]      *              0             0             1 
    62 x[3,12]      *              0             0             1 
    63 x[3,13]      *              0             0             1 
    64 x[3,14]      *              0             0             1 
    65 x[3,15]      *              0             0             1 
    66 x[3,16]      *              0             0             1 
    67 x[3,17]      *              0             0             1 
    68 x[3,18]      *              0             0             1 
    69 x[3,19]      *              0             0             1 
    70 x[3,20]      *              0             0             1 
    71 x[3,21]      *              0             0             1 
    72 x[3,22]      *              0             0             1 
    73 x[3,23]      *              0             0             1 
    74 x[3,24]      *              0             0             1 
    75 x[3,25]      *              0             0             1 
    76 x[4,1]       *              0             0             1 
    77 x[4,2]       *              0             0             1 
    78 x[4,3]       *              0             0             1 
    79 x[4,4]       *              0             0             1 
    80 x[4,5]       *              0             0             1 
    81 x[4,6]       *              1             0             1 
    82 x[4,7]       *              1             0             1 
    83 x[4,8]       *              1             0             1 
    84 x[4,9]       *              1             0             1 
    85 x[4,10]      *              1             0             1 
    86 x[4,11]      *              1             0             1 
    87 x[4,12]      *              1             0             1 
    88 x[4,13]      *              1             0             1 
    89 x[4,14]      *              0             0             1 
    90 x[4,15]      *              0             0             1 
    91 x[4,16]      *              0             0             1 
    92 x[4,17]      *              0             0             1 
    93 x[4,18]      *              0             0             1 
    94 x[4,19]      *              0             0             1 
    95 x[4,20]      *              0             0             1 
    96 x[4,21]      *              0             0             1 
    97 x[4,22]      *              0             0             1 
    98 x[4,23]      *              0             0             1 
    99 x[4,24]      *              0             0             1 
   100 x[4,25]      *              0             0             1 
   101 z                          13                             

Integer feasibility conditions:

KKT.PE: max.abs.err = 0.00e+00 on row 0
        max.rel.err = 0.00e+00 on row 0
        High quality

KKT.PB: max.abs.err = 0.00e+00 on row 0
        max.rel.err = 0.00e+00 on row 0
        High quality

End of output
